set VV := 0 1 2 3 4 5 6 7 8 9 10 11 12 13 14 15 ;
set VS := 0 1 2 3 4 5 6 7 8 9 10 11 12 13 14 15 16 17 18 19 20 21 22 23 24 25 26 27 28 29 30 31 32 33 34 35 ;
param cv := 
0 19
1 14
2 20
3 10
4 23
5 11
6 11
7 13
8 17
9 15
10 18
11 15
12 17
13 17
14 15
15 24
;
param cs := 
0 22
1 20
2 22
3 38
4 30
5 34
6 35
7 29
8 35
9 31
10 23
11 39
12 35
13 20
14 37
15 27
16 22
17 25
18 34
19 21
20 40
21 22
22 37
23 38
24 34
25 30
26 27
27 21
28 22
29 37
30 32
31 27
32 24
33 39
34 37
35 27
;
param bv:	 0 1 2 3 4 5 6 7 8 9 10 11 12 13 14 15 := 
		0 0 0 0 12 0 0 0 0 0 0 0 0 0 0 0 24 
		1 0 0 0 11 0 20 0 0 0 0 0 0 0 0 0 0 
		2 0 0 0 11 0 0 19 0 22 0 0 0 0 0 0 0 
		3 0 0 0 0 0 0 0 0 23 19 0 0 0 0 0 0 
		4 0 0 0 0 0 0 0 0 0 0 0 0 14 0 21 0 
		5 0 0 0 0 0 0 17 0 0 0 0 15 0 0 0 0 
		6 0 0 0 0 0 0 0 0 0 0 0 10 0 0 0 0 
		7 0 0 0 0 0 0 0 0 0 0 0 0 14 0 0 0 
		8 0 0 0 0 0 0 0 0 0 25 0 0 0 0 0 10 
		9 0 0 0 0 0 0 0 0 0 0 0 0 11 0 0 0 
		10 0 0 0 0 0 0 0 0 0 0 0 0 11 0 0 0 
		11 0 0 0 0 0 0 0 0 0 0 0 0 0 0 0 0 
		12 0 0 0 0 0 0 0 0 0 0 0 0 0 0 0 0 
		13 0 0 0 0 0 0 0 0 0 0 0 0 0 0 14 0 
		14 0 0 0 0 0 0 0 0 0 0 0 0 0 0 0 0 
		15 0 0 0 0 0 0 0 0 0 0 0 0 0 0 0 0 
;
param bs:	 0 1 2 3 4 5 6 7 8 9 10 11 12 13 14 15 16 17 18 19 20 21 22 23 24 25 26 27 28 29 30 31 32 33 34 35 := 
		0 0 37 0 0 0 0 32 0 0 0 0 0 0 0 0 0 0 0 0 0 0 0 0 0 0 0 0 0 0 0 29 0 0 0 0 0 
		1 37 0 0 0 0 0 0 0 0 0 0 0 25 0 0 0 0 0 0 0 0 0 0 0 0 0 0 0 0 0 0 0 0 36 0 0 
		2 0 0 0 0 0 0 0 0 0 21 0 0 0 0 0 0 0 0 0 0 35 0 33 0 0 0 0 24 31 0 21 0 0 0 0 0 
		3 0 0 0 0 0 0 0 0 21 0 0 0 0 0 0 37 0 0 0 0 0 0 0 0 0 0 0 0 0 0 0 0 0 0 0 0 
		4 0 0 0 0 0 0 31 0 0 0 36 0 0 0 0 0 0 0 0 0 0 29 0 0 0 0 0 0 0 0 0 0 0 25 0 0 
		5 0 0 0 0 0 0 0 24 0 0 0 29 0 0 0 0 31 0 0 0 27 22 0 0 0 0 0 0 0 0 0 0 0 0 0 0 
		6 32 0 0 0 31 0 0 0 0 0 20 0 0 0 0 0 0 38 0 0 0 0 0 0 0 0 0 0 0 0 0 0 0 0 0 0 
		7 0 0 0 0 0 24 0 0 0 0 0 0 31 0 28 0 36 0 0 0 0 0 0 0 0 0 31 0 0 0 0 0 0 0 0 0 
		8 0 0 0 21 0 0 0 0 0 0 24 0 0 34 0 39 0 30 35 21 0 32 34 0 0 0 0 0 0 0 0 0 0 0 31 0 
		9 0 0 21 0 0 0 0 0 0 0 0 21 0 0 26 0 0 0 0 0 0 0 0 0 0 0 0 0 0 0 0 0 0 28 0 0 
		10 0 0 0 0 36 0 20 0 24 0 0 0 0 0 26 0 0 0 0 39 0 0 0 0 0 0 0 22 0 0 0 0 0 0 0 0 
		11 0 0 0 0 0 29 0 0 0 21 0 0 0 0 33 0 0 0 0 0 0 28 0 0 0 0 0 0 0 0 0 0 0 0 0 0 
		12 0 25 0 0 0 0 0 31 0 0 0 0 0 0 28 0 0 0 0 0 0 0 0 0 0 0 0 0 0 0 29 0 0 27 0 0 
		13 0 0 0 0 0 0 0 0 34 0 0 0 0 0 0 0 0 0 39 25 0 0 0 0 27 0 0 0 0 0 0 0 0 0 0 30 
		14 0 0 0 0 0 0 0 28 0 26 26 33 28 0 0 0 0 0 0 0 0 29 0 0 0 0 0 0 0 0 0 0 0 0 0 0 
		15 0 0 0 37 0 0 0 0 39 0 0 0 0 0 0 0 0 0 0 0 0 0 0 0 0 0 0 0 0 37 0 0 0 0 0 0 
		16 0 0 0 0 0 31 0 36 0 0 0 0 0 0 0 0 0 0 0 0 0 0 0 0 0 0 0 0 0 0 0 0 0 0 0 0 
		17 0 0 0 0 0 0 38 0 30 0 0 0 0 0 0 0 0 0 0 28 0 0 0 0 0 0 37 0 0 40 0 0 0 0 38 0 
		18 0 0 0 0 0 0 0 0 35 0 0 0 0 39 0 0 0 0 0 0 39 0 0 0 0 0 20 0 0 0 0 0 0 0 36 0 
		19 0 0 0 0 0 0 0 0 21 0 39 0 0 25 0 0 0 28 0 0 0 0 0 0 0 0 0 0 0 0 0 0 23 0 0 36 
		20 0 0 35 0 0 27 0 0 0 0 0 0 0 0 0 0 0 0 39 0 0 0 0 0 23 0 0 0 0 0 0 32 0 0 0 0 
		21 0 0 0 0 29 22 0 0 32 0 0 28 0 0 29 0 0 0 0 0 0 0 0 0 0 0 0 0 0 0 0 0 0 35 40 0 
		22 0 0 33 0 0 0 0 0 34 0 0 0 0 0 0 0 0 0 0 0 0 0 0 0 0 0 0 0 0 0 0 0 20 0 0 0 
		23 0 0 0 0 0 0 0 0 0 0 0 0 0 0 0 0 0 0 0 0 0 0 0 0 0 0 0 0 0 0 0 0 0 0 0 22 
		24 0 0 0 0 0 0 0 0 0 0 0 0 0 27 0 0 0 0 0 0 23 0 0 0 0 0 0 0 0 0 0 0 0 0 0 0 
		25 0 0 0 0 0 0 0 0 0 0 0 0 0 0 0 0 0 0 0 0 0 0 0 0 0 0 0 0 0 0 0 38 0 0 0 33 
		26 0 0 0 0 0 0 0 31 0 0 0 0 0 0 0 0 0 37 20 0 0 0 0 0 0 0 0 0 0 0 0 0 0 0 0 0 
		27 0 0 24 0 0 0 0 0 0 0 22 0 0 0 0 0 0 0 0 0 0 0 0 0 0 0 0 0 0 0 0 0 0 0 0 0 
		28 0 0 31 0 0 0 0 0 0 0 0 0 0 0 0 0 0 0 0 0 0 0 0 0 0 0 0 0 0 0 30 0 0 0 0 0 
		29 0 0 0 0 0 0 0 0 0 0 0 0 0 0 0 37 0 40 0 0 0 0 0 0 0 0 0 0 0 0 24 0 0 0 0 0 
		30 29 0 21 0 0 0 0 0 0 0 0 0 29 0 0 0 0 0 0 0 0 0 0 0 0 0 0 0 30 24 0 0 26 0 0 0 
		31 0 0 0 0 0 0 0 0 0 0 0 0 0 0 0 0 0 0 0 0 32 0 0 0 0 38 0 0 0 0 0 0 0 0 0 0 
		32 0 0 0 0 0 0 0 0 0 0 0 0 0 0 0 0 0 0 0 23 0 0 20 0 0 0 0 0 0 0 26 0 0 0 0 0 
		33 0 36 0 0 25 0 0 0 0 28 0 0 27 0 0 0 0 0 0 0 0 35 0 0 0 0 0 0 0 0 0 0 0 0 22 0 
		34 0 0 0 0 0 0 0 0 31 0 0 0 0 0 0 0 0 38 36 0 0 40 0 0 0 0 0 0 0 0 0 0 0 22 0 0 
		35 0 0 0 0 0 0 0 0 0 0 0 0 0 30 0 0 0 0 0 36 0 0 0 22 0 33 0 0 0 0 0 0 0 0 0 0 
;
